assets/logs/3_8x8_clingo/3_8x8_clingo.solution.log

---------------------------------
|  0|  0| 40| 46| 37| 14| 20|  6|
---------------------------------
| 42| 48| 26| 12| 22|  4| 39| 16|
---------------------------------
|  0| 38| 44| 35| 21| 18|  8|  2|
---------------------------------
| 50| 28| 23| 24| 10| 33|  0| 41|
---------------------------------
| 36| 11| 52| 19|  0| 27|  0| 31|
---------------------------------
|  0| 17| 30| 25|  7|  0| 43| 49|
---------------------------------
| 13| 34|  9|  3|  0| 47| 29|  0|
---------------------------------
|  0|  1| 15| 32|  0|  5| 51| 45|
---------------------------------

| n = 8 | k = 8 | coverage = 59, 92.1875%
 Time 299.997
 Name 3_8x8_clingo

