assets/logs/3_8x8_clingo/3_8x8_clingo.log
clingo version 5.4.0
Reading from ...sets/logs/3_8x8_clingo/knights_tour.lp ...
Solving...
Answer: 1
occ(1,3,1) occ(1,4,7) occ(1,5,5) occ(1,8,5) occ(1,1,1) occ(1,5,7) occ(1,7,5) occ(1,6,6) occ(2,8,2) occ(3,3,8) coverage(6)
Optimization: -6
Answer: 2
occ(1,3,1) occ(1,4,7) occ(1,5,5) occ(1,8,5) occ(1,1,1) occ(1,5,7) occ(1,7,5) occ(1,6,6) occ(2,8,2) occ(3,3,8) coverage(24) occ(5,1,7) occ(23,1,6) occ(29,1,3) occ(39,1,4) occ(43,1,8) occ(53,1,5) occ(7,2,5) occ(21,2,8) occ(25,2,4) occ(31,2,1) occ(35,2,3) occ(41,2,6) occ(51,2,7) occ(57,2,2) occ(19,3,6) occ(27,3,2) occ(37,3,5) occ(45,3,7) occ(55,3,4) occ(9,4,4) occ(17,4,8) occ(33,4,2) occ(49,4,6) occ(59,4,1) occ(47,5,8) occ(4,6,1) occ(10,6,2) occ(11,6,5) occ(14,6,4) occ(15,6,7) occ(6,7,3) occ(16,7,2) occ(20,7,6) occ(8,8,1) occ(12,8,3) occ(13,8,6) occ(18,8,4) occ(22,8,8)
Optimization: -24
Answer: 3
occ(1,3,1) occ(1,4,7) occ(1,5,5) occ(1,8,5) occ(1,1,1) occ(1,5,7) occ(1,7,5) occ(1,6,6) occ(2,8,2) occ(3,3,8) coverage(43) occ(13,1,3) occ(19,1,4) occ(23,1,2) occ(27,1,6) occ(33,1,5) occ(5,2,6) occ(17,2,2) occ(25,2,4) occ(29,2,8) occ(32,2,5) occ(35,2,3) occ(36,2,7) occ(11,3,2) occ(15,3,4) occ(21,3,3) occ(30,3,7) occ(31,3,6) occ(41,3,5) occ(7,4,5) occ(10,4,4) occ(34,4,6) occ(37,4,2) occ(38,4,8) occ(9,5,3) occ(12,5,2) occ(24,5,6) occ(28,5,8) occ(39,5,4) occ(54,5,1) occ(4,6,1) occ(8,6,5) occ(16,6,3) occ(22,6,8) occ(40,6,7) occ(46,6,2) occ(50,6,4) occ(6,7,3) occ(14,7,1) occ(20,7,6) occ(26,7,7) occ(44,7,4) occ(52,7,2) occ(18,8,4) occ(42,8,6) occ(48,8,3)
Optimization: -43
Answer: 4
occ(1,3,1) occ(1,4,7) occ(1,5,5) occ(1,8,5) occ(1,1,1) occ(1,5,7) occ(1,7,5) occ(1,6,6) occ(2,8,2) occ(3,3,8) coverage(45) occ(13,1,3) occ(19,1,4) occ(23,1,2) occ(27,1,6) occ(33,1,5) occ(5,2,6) occ(17,2,2) occ(25,2,4) occ(29,2,8) occ(32,2,5) occ(35,2,3) occ(36,2,7) occ(11,3,2) occ(15,3,4) occ(21,3,3) occ(30,3,7) occ(31,3,6) occ(41,3,5) occ(7,4,5) occ(10,4,4) occ(34,4,6) occ(37,4,2) occ(38,4,8) occ(43,4,3) occ(9,5,3) occ(12,5,2) occ(24,5,6) occ(28,5,8) occ(39,5,4) occ(54,5,1) occ(4,6,1) occ(8,6,5) occ(16,6,3) occ(22,6,8) occ(40,6,7) occ(46,6,2) occ(50,6,4) occ(6,7,3) occ(14,7,1) occ(20,7,6) occ(26,7,7) occ(44,7,4) occ(52,7,2) occ(18,8,4) occ(42,8,6) occ(48,8,3)
Optimization: -45
Answer: 5
occ(1,3,1) occ(1,4,7) occ(1,5,5) occ(1,8,5) occ(1,1,1) occ(1,5,7) occ(1,7,5) occ(1,6,6) occ(2,8,2) occ(3,3,8) coverage(47) occ(5,1,7) occ(11,1,8) occ(15,1,4) occ(29,1,5) occ(32,1,6) occ(37,1,3) occ(7,2,5) occ(13,2,6) occ(17,2,2) occ(27,2,7) occ(30,2,4) occ(31,2,3) occ(35,2,1) occ(45,2,8) occ(9,3,7) occ(19,3,4) occ(34,3,5) occ(38,3,3) occ(39,3,2) occ(43,3,6) occ(21,4,6) occ(25,4,8) occ(28,4,5) occ(33,4,2) occ(41,4,4) occ(48,4,1) occ(12,5,6) occ(22,5,1) occ(26,5,3) occ(36,5,4) occ(40,5,2) occ(4,6,1) occ(8,6,5) occ(14,6,8) occ(20,6,3) occ(23,6,7) occ(42,6,4) occ(46,6,2) occ(6,7,3) occ(10,7,7) occ(16,7,6) occ(24,7,2) occ(18,8,4) occ(44,8,3)
Optimization: -47
Answer: 6
occ(1,3,1) occ(1,4,7) occ(1,5,5) occ(1,8,5) occ(1,1,1) occ(1,5,7) occ(1,7,5) occ(1,6,6) occ(2,8,2) occ(3,3,8) coverage(49) occ(5,1,7) occ(11,1,8) occ(15,1,4) occ(29,1,5) occ(32,1,6) occ(7,2,5) occ(13,2,6) occ(17,2,2) occ(27,2,7) occ(30,2,4) occ(31,2,3) occ(47,2,1) occ(9,3,7) occ(19,3,4) occ(24,3,2) occ(34,3,5) occ(38,3,3) occ(21,4,6) occ(25,4,8) occ(28,4,3) occ(33,4,4) occ(40,4,5) occ(45,4,2) occ(48,4,1) occ(12,5,6) occ(22,5,3) occ(26,5,1) occ(36,5,4) occ(39,5,2) occ(8,6,5) occ(14,6,8) occ(23,6,7) occ(35,6,3) occ(42,6,4) occ(43,6,1) occ(46,6,2) occ(4,7,4) occ(10,7,7) occ(16,7,6) occ(20,7,2) occ(37,7,1) occ(41,7,3) occ(6,8,6) occ(18,8,4) occ(44,8,3)
Optimization: -49
Answer: 7
occ(1,3,1) occ(1,4,7) occ(1,5,5) occ(1,8,5) occ(1,1,1) occ(1,5,7) occ(1,7,5) occ(1,6,6) occ(2,8,2) occ(3,3,8) coverage(50) occ(5,1,7) occ(9,1,3) occ(20,1,2) occ(27,1,4) occ(40,1,6) occ(45,1,5) occ(7,2,5) occ(22,2,4) occ(25,2,6) occ(29,2,2) occ(43,2,7) occ(44,2,3) occ(48,2,1) occ(49,2,8) occ(11,3,2) occ(18,3,3) occ(31,3,4) occ(38,3,7) occ(42,3,5) occ(47,3,6) occ(23,4,5) occ(24,4,3) occ(30,4,4) occ(33,4,6) occ(41,4,8) occ(46,4,2) occ(13,5,3) occ(16,5,2) occ(26,5,1) occ(32,5,6) occ(36,5,8) occ(4,6,1) occ(10,6,2) occ(21,6,4) occ(28,6,3) occ(35,6,5) occ(39,6,7) occ(6,7,3) occ(14,7,1) occ(15,7,2) occ(19,7,6) occ(34,7,7) occ(8,8,1) occ(12,8,3) occ(17,8,4) occ(37,8,6)
Optimization: -50
Answer: 8
occ(1,3,1) occ(1,4,7) occ(1,5,5) occ(1,8,5) occ(1,1,1) occ(1,5,7) occ(1,7,5) occ(1,6,6) occ(2,8,2) occ(3,3,8) coverage(51) occ(5,1,7) occ(9,1,3) occ(14,1,5) occ(31,1,8) occ(35,1,6) occ(40,1,4) occ(7,2,5) occ(16,2,3) occ(29,2,6) occ(37,2,4) occ(38,2,2) occ(44,2,7) occ(11,3,4) occ(12,3,6) occ(33,3,7) occ(34,3,3) occ(39,3,2) occ(42,3,5) occ(10,4,4) occ(18,4,2) occ(27,4,5) occ(30,4,6) occ(36,4,1) occ(43,4,3) occ(46,4,8) occ(8,5,2) occ(13,5,3) occ(23,5,6) occ(28,5,8) occ(32,5,4) occ(41,5,1) occ(4,6,3) occ(20,6,1) occ(21,6,8) occ(24,6,5) occ(25,6,4) occ(45,6,2) occ(48,6,7) occ(6,7,1) occ(15,7,2) occ(19,7,6) occ(22,7,3) occ(26,7,7) occ(47,7,4) occ(17,8,4) occ(49,8,6) occ(50,8,8)
Optimization: -51
Answer: 9
occ(1,3,1) occ(1,4,7) occ(1,5,5) occ(1,8,5) occ(1,1,1) occ(1,5,7) occ(1,7,5) occ(1,6,6) occ(2,8,2) occ(3,3,8) coverage(52) occ(5,1,7) occ(9,1,3) occ(14,1,5) occ(31,1,8) occ(35,1,6) occ(40,1,4) occ(7,2,5) occ(16,2,3) occ(29,2,6) occ(37,2,4) occ(38,2,2) occ(44,2,7) occ(11,3,4) occ(12,3,6) occ(33,3,7) occ(34,3,3) occ(39,3,2) occ(42,3,5) occ(10,4,4) occ(18,4,2) occ(27,4,5) occ(30,4,6) occ(36,4,1) occ(43,4,3) occ(46,4,8) occ(8,5,2) occ(13,5,3) occ(23,5,6) occ(28,5,8) occ(32,5,4) occ(41,5,1) occ(4,6,3) occ(20,6,1) occ(21,6,8) occ(24,6,5) occ(25,6,4) occ(45,6,2) occ(48,6,7) occ(6,7,1) occ(15,7,2) occ(19,7,6) occ(22,7,3) occ(26,7,7) occ(47,7,4) occ(51,7,8) occ(17,8,4) occ(49,8,6) occ(50,8,8)
Optimization: -52
Answer: 10
occ(1,3,1) occ(1,4,7) occ(1,5,5) occ(1,8,5) occ(1,1,1) occ(1,5,7) occ(1,7,5) occ(1,6,6) occ(2,8,2) occ(3,3,8) coverage(53) occ(5,1,7) occ(11,1,6) occ(32,1,4) occ(38,1,5) occ(46,1,3) occ(9,2,8) occ(13,2,4) occ(17,2,2) occ(30,2,6) occ(36,2,7) occ(39,2,5) occ(40,2,3) occ(44,2,1) occ(7,3,6) occ(21,3,3) occ(34,3,5) occ(41,3,7) occ(48,3,4) occ(52,3,2) occ(15,4,3) occ(19,4,1) occ(25,4,6) occ(28,4,5) occ(37,4,4) occ(42,4,2) occ(8,5,2) occ(23,5,4) occ(33,5,1) occ(43,5,8) occ(47,5,6) occ(50,5,3) occ(4,6,1) occ(14,6,2) occ(20,6,7) occ(26,6,4) occ(27,6,5) occ(35,6,3) occ(49,6,8) occ(6,7,3) occ(10,7,1) occ(16,7,4) occ(24,7,6) occ(31,7,2) occ(45,7,7) occ(12,8,3) occ(18,8,6) occ(22,8,8) occ(29,8,4) occ(51,8,7)
Optimization: -53
Answer: 11
occ(1,3,1) occ(1,4,7) occ(1,5,5) occ(1,8,5) occ(1,1,1) occ(1,5,7) occ(1,7,5) occ(1,6,6) occ(2,8,2) occ(3,3,8) coverage(54) occ(7,1,8) occ(15,1,6) occ(21,1,7) occ(38,1,5) occ(41,1,3) occ(47,1,4) occ(5,2,6) occ(13,2,4) occ(17,2,8) occ(23,2,5) occ(27,2,3) occ(40,2,7) occ(43,2,1) occ(49,2,2) occ(9,3,7) occ(19,3,6) occ(22,3,5) occ(36,3,4) occ(39,3,2) occ(45,3,3) occ(11,4,5) occ(24,4,3) occ(25,4,4) occ(29,4,2) occ(34,4,6) occ(42,4,8) occ(51,4,1) occ(12,5,2) occ(20,5,4) occ(28,5,6) occ(32,5,8) occ(37,5,1) occ(53,5,3) occ(8,6,5) occ(18,6,2) occ(26,6,4) occ(31,6,3) occ(44,6,7) occ(50,6,8) occ(4,7,4) occ(10,7,3) occ(14,7,1) occ(30,7,7) occ(35,7,2) occ(48,7,6) occ(6,8,6) occ(16,8,3) occ(33,8,4) occ(46,8,8) occ(52,8,7)
Optimization: -54
*** Info : (clingo): INTERRUPTED by signal!
SATISFIABLE

TIME LIMIT   : 1
Models       : 11+
  Optimum    : unknown
Optimization : -54
Calls        : 1
Time         : 300.000s (Solving: 299.70s 1st Model: 0.00s Unsat: 0.00s)
CPU Time     : 299.997s
